proyfinal/src/viki/013/andrea/andrea-localstore/experimentInOfficeAgust.take6/worker_6/4ab18dd5-aed8-4488-b22e-618bb7f3bc77.als.cnf.out
Reading from standard input... Use '--help' for help.
============================[ Problem Statistics ]=============================
|                                                                             |
|  Number of variables:         87638                                         |
|  Number of clauses:          161767                                         |
|  Parse time:                   0.03 s                                       |
|                                                                             |
============================[ Search Statistics ]==============================
| Conflicts |          ORIGINAL         |          LEARNT          | Progress |
|           |    Vars  Clauses Literals |    Limit  Clauses Lit/Cl |          |
===============================================================================
|       100 |   62162   104553   260779 |    38336      100     16 | 29.070 % |
|       250 |   62062   104149   259818 |    42169      233     13 | 29.184 % |
|       475 |   62062   104149   259818 |    46386      458     54 | 29.184 % |
|       812 |   62062   104149   259818 |    51025      795     59 | 29.184 % |
|      1318 |   61912   103549   258369 |    56127     1285     71 | 29.355 % |
|      2077 |   52916    76594   192154 |    61740     1944     64 | 39.620 % |
|      3216 |   52682    75618   189771 |    67914     2985     60 | 39.887 % |
|      4924 |   52371    74306   186640 |    74706     4653     53 | 40.242 % |
|      7486 |   52273    73880   185633 |    82176     6538     47 | 40.354 % |
|     11330 |   51948    72633   182746 |    90394     9261     44 | 40.724 % |
===============================================================================
restarts              : 62
conflicts             : 15725          (9789 /sec)
decisions             : 51515          (0.00 % random) (32070 /sec)
propagations          : 18497223       (11515035 /sec)
conflict literals     : 664566         (42.03 % deleted)
Memory used           : 34.36 MB
CPU time              : 1.60635 s

UNSATISFIABLE
